24
14 17
14 18
14 15
14 21
14 12
14 2
14 3
14 13
17 10
17 13
17 12
17 6
17 16
17 9
17 15
10 4
10 1
10 19
10 3
10 11
10 22
10 9
0 20
0 18
0 5
0 2
0 22
0 19
0 16
0 23
20 13
20 18
20 6
20 5
20 1
20 4
20 19
7 12
7 6
7 21
7 18
7 2
7 5
7 1
7 4
12 13
12 9
12 16
12 21
12 6
13 19
13 8
13 2
13 3
1 6
1 15
1 3
1 4
1 8
6 16
6 11
6 8
18 5
18 3
18 8
18 16
5 11
5 3
5 9
5 15
11 22
11 21
11 15
11 4
11 19
22 16
22 23
22 8
22 4
22 9
16 23
16 3
4 21
4 2
15 23
15 3
15 21
21 19
21 23
8 9
8 2
8 19
19 23
23 2
23 9
9 2
